(set-logic ALL)
(declare-const str1_VAR String)
(declare-const str2_VAR String)
(assert (not (< (str.len str2_VAR) (str.len str1_VAR))))
(assert (not (< 0 (str.len str1_VAR))))
(assert (not (< (str.len str1_VAR) (str.len str2_VAR))))
(assert (not (< 0 (str.len str2_VAR))))
(assert (< 0 (str.len (str.substr str1_VAR 0 (- 4 0)))))
(check-sat)
(get-value (str1_VAR))
(get-value (str2_VAR))
